c description: Tseitin formula on , with even charge
c generator: CNFgen (0.9.0)
c copyright: (C) 2012-2020 Massimo Lauria <massimo.lauria@uniroma1.it>
c url: https://massimolauria.net/cnfgen
c
p cnf 30 492
1 2 3 -4 0
1 2 -3 4 0
1 -2 3 4 0
1 -2 -3 -4 0
-1 2 3 4 0
-1 2 -3 -4 0
-1 -2 3 -4 0
-1 -2 -3 4 0
5 6 7 8 9 10 -11 0
5 6 7 8 9 -10 11 0
5 6 7 8 -9 10 11 0
5 6 7 8 -9 -10 -11 0
5 6 7 -8 9 10 11 0
5 6 7 -8 9 -10 -11 0
5 6 7 -8 -9 10 -11 0
5 6 7 -8 -9 -10 11 0
5 6 -7 8 9 10 11 0
5 6 -7 8 9 -10 -11 0
5 6 -7 8 -9 10 -11 0
5 6 -7 8 -9 -10 11 0
5 6 -7 -8 9 10 -11 0
5 6 -7 -8 9 -10 11 0
5 6 -7 -8 -9 10 11 0
5 6 -7 -8 -9 -10 -11 0
5 -6 7 8 9 10 11 0
5 -6 7 8 9 -10 -11 0
5 -6 7 8 -9 10 -11 0
5 -6 7 8 -9 -10 11 0
5 -6 7 -8 9 10 -11 0
5 -6 7 -8 9 -10 11 0
5 -6 7 -8 -9 10 11 0
5 -6 7 -8 -9 -10 -11 0
5 -6 -7 8 9 10 -11 0
5 -6 -7 8 9 -10 11 0
5 -6 -7 8 -9 10 11 0
5 -6 -7 8 -9 -10 -11 0
5 -6 -7 -8 9 10 11 0
5 -6 -7 -8 9 -10 -11 0
5 -6 -7 -8 -9 10 -11 0
5 -6 -7 -8 -9 -10 11 0
-5 6 7 8 9 10 11 0
-5 6 7 8 9 -10 -11 0
-5 6 7 8 -9 10 -11 0
-5 6 7 8 -9 -10 11 0
-5 6 7 -8 9 10 -11 0
-5 6 7 -8 9 -10 11 0
-5 6 7 -8 -9 10 11 0
-5 6 7 -8 -9 -10 -11 0
-5 6 -7 8 9 10 -11 0
-5 6 -7 8 9 -10 11 0
-5 6 -7 8 -9 10 11 0
-5 6 -7 8 -9 -10 -11 0
-5 6 -7 -8 9 10 11 0
-5 6 -7 -8 9 -10 -11 0
-5 6 -7 -8 -9 10 -11 0
-5 6 -7 -8 -9 -10 11 0
-5 -6 7 8 9 10 -11 0
-5 -6 7 8 9 -10 11 0
-5 -6 7 8 -9 10 11 0
-5 -6 7 8 -9 -10 -11 0
-5 -6 7 -8 9 10 11 0
-5 -6 7 -8 9 -10 -11 0
-5 -6 7 -8 -9 10 -11 0
-5 -6 7 -8 -9 -10 11 0
-5 -6 -7 8 9 10 11 0
-5 -6 -7 8 9 -10 -11 0
-5 -6 -7 8 -9 10 -11 0
-5 -6 -7 8 -9 -10 11 0
-5 -6 -7 -8 9 10 -11 0
-5 -6 -7 -8 9 -10 11 0
-5 -6 -7 -8 -9 10 11 0
-5 -6 -7 -8 -9 -10 -11 0
1 5 12 13 14 15 -16 0
1 5 12 13 14 -15 16 0
1 5 12 13 -14 15 16 0
1 5 12 13 -14 -15 -16 0
1 5 12 -13 14 15 16 0
1 5 12 -13 14 -15 -16 0
1 5 12 -13 -14 15 -16 0
1 5 12 -13 -14 -15 16 0
1 5 -12 13 14 15 16 0
1 5 -12 13 14 -15 -16 0
1 5 -12 13 -14 15 -16 0
1 5 -12 13 -14 -15 16 0
1 5 -12 -13 14 15 -16 0
1 5 -12 -13 14 -15 16 0
1 5 -12 -13 -14 15 16 0
1 5 -12 -13 -14 -15 -16 0
1 -5 12 13 14 15 16 0
1 -5 12 13 14 -15 -16 0
1 -5 12 13 -14 15 -16 0
1 -5 12 13 -14 -15 16 0
1 -5 12 -13 14 15 -16 0
1 -5 12 -13 14 -15 16 0
1 -5 12 -13 -14 15 16 0
1 -5 12 -13 -14 -15 -16 0
1 -5 -12 13 14 15 -16 0
1 -5 -12 13 14 -15 16 0
1 -5 -12 13 -14 15 16 0
1 -5 -12 13 -14 -15 -16 0
1 -5 -12 -13 14 15 16 0
1 -5 -12 -13 14 -15 -16 0
1 -5 -12 -13 -14 15 -16 0
1 -5 -12 -13 -14 -15 16 0
-1 5 12 13 14 15 16 0
-1 5 12 13 14 -15 -16 0
-1 5 12 13 -14 15 -16 0
-1 5 12 13 -14 -15 16 0
-1 5 12 -13 14 15 -16 0
-1 5 12 -13 14 -15 16 0
-1 5 12 -13 -14 15 16 0
-1 5 12 -13 -14 -15 -16 0
-1 5 -12 13 14 15 -16 0
-1 5 -12 13 14 -15 16 0
-1 5 -12 13 -14 15 16 0
-1 5 -12 13 -14 -15 -16 0
-1 5 -12 -13 14 15 16 0
-1 5 -12 -13 14 -15 -16 0
-1 5 -12 -13 -14 15 -16 0
-1 5 -12 -13 -14 -15 16 0
-1 -5 12 13 14 15 -16 0
-1 -5 12 13 14 -15 16 0
-1 -5 12 13 -14 15 16 0
-1 -5 12 13 -14 -15 -16 0
-1 -5 12 -13 14 15 16 0
-1 -5 12 -13 14 -15 -16 0
-1 -5 12 -13 -14 15 -16 0
-1 -5 12 -13 -14 -15 16 0
-1 -5 -12 13 14 15 16 0
-1 -5 -12 13 14 -15 -16 0
-1 -5 -12 13 -14 15 -16 0
-1 -5 -12 13 -14 -15 16 0
-1 -5 -12 -13 14 15 -16 0
-1 -5 -12 -13 14 -15 16 0
-1 -5 -12 -13 -14 15 16 0
-1 -5 -12 -13 -14 -15 -16 0
6 12 17 18 19 20 21 -22 0
6 12 17 18 19 20 -21 22 0
6 12 17 18 19 -20 21 22 0
6 12 17 18 19 -20 -21 -22 0
6 12 17 18 -19 20 21 22 0
6 12 17 18 -19 20 -21 -22 0
6 12 17 18 -19 -20 21 -22 0
6 12 17 18 -19 -20 -21 22 0
6 12 17 -18 19 20 21 22 0
6 12 17 -18 19 20 -21 -22 0
6 12 17 -18 19 -20 21 -22 0
6 12 17 -18 19 -20 -21 22 0
6 12 17 -18 -19 20 21 -22 0
6 12 17 -18 -19 20 -21 22 0
6 12 17 -18 -19 -20 21 22 0
6 12 17 -18 -19 -20 -21 -22 0
6 12 -17 18 19 20 21 22 0
6 12 -17 18 19 20 -21 -22 0
6 12 -17 18 19 -20 21 -22 0
6 12 -17 18 19 -20 -21 22 0
6 12 -17 18 -19 20 21 -22 0
6 12 -17 18 -19 20 -21 22 0
6 12 -17 18 -19 -20 21 22 0
6 12 -17 18 -19 -20 -21 -22 0
6 12 -17 -18 19 20 21 -22 0
6 12 -17 -18 19 20 -21 22 0
6 12 -17 -18 19 -20 21 22 0
6 12 -17 -18 19 -20 -21 -22 0
6 12 -17 -18 -19 20 21 22 0
6 12 -17 -18 -19 20 -21 -22 0
6 12 -17 -18 -19 -20 21 -22 0
6 12 -17 -18 -19 -20 -21 22 0
6 -12 17 18 19 20 21 22 0
6 -12 17 18 19 20 -21 -22 0
6 -12 17 18 19 -20 21 -22 0
6 -12 17 18 19 -20 -21 22 0
6 -12 17 18 -19 20 21 -22 0
6 -12 17 18 -19 20 -21 22 0
6 -12 17 18 -19 -20 21 22 0
6 -12 17 18 -19 -20 -21 -22 0
6 -12 17 -18 19 20 21 -22 0
6 -12 17 -18 19 20 -21 22 0
6 -12 17 -18 19 -20 21 22 0
6 -12 17 -18 19 -20 -21 -22 0
6 -12 17 -18 -19 20 21 22 0
6 -12 17 -18 -19 20 -21 -22 0
6 -12 17 -18 -19 -20 21 -22 0
6 -12 17 -18 -19 -20 -21 22 0
6 -12 -17 18 19 20 21 -22 0
6 -12 -17 18 19 20 -21 22 0
6 -12 -17 18 19 -20 21 22 0
6 -12 -17 18 19 -20 -21 -22 0
6 -12 -17 18 -19 20 21 22 0
6 -12 -17 18 -19 20 -21 -22 0
6 -12 -17 18 -19 -20 21 -22 0
6 -12 -17 18 -19 -20 -21 22 0
6 -12 -17 -18 19 20 21 22 0
6 -12 -17 -18 19 20 -21 -22 0
6 -12 -17 -18 19 -20 21 -22 0
6 -12 -17 -18 19 -20 -21 22 0
6 -12 -17 -18 -19 20 21 -22 0
6 -12 -17 -18 -19 20 -21 22 0
6 -12 -17 -18 -19 -20 21 22 0
6 -12 -17 -18 -19 -20 -21 -22 0
-6 12 17 18 19 20 21 22 0
-6 12 17 18 19 20 -21 -22 0
-6 12 17 18 19 -20 21 -22 0
-6 12 17 18 19 -20 -21 22 0
-6 12 17 18 -19 20 21 -22 0
-6 12 17 18 -19 20 -21 22 0
-6 12 17 18 -19 -20 21 22 0
-6 12 17 18 -19 -20 -21 -22 0
-6 12 17 -18 19 20 21 -22 0
-6 12 17 -18 19 20 -21 22 0
-6 12 17 -18 19 -20 21 22 0
-6 12 17 -18 19 -20 -21 -22 0
-6 12 17 -18 -19 20 21 22 0
-6 12 17 -18 -19 20 -21 -22 0
-6 12 17 -18 -19 -20 21 -22 0
-6 12 17 -18 -19 -20 -21 22 0
-6 12 -17 18 19 20 21 -22 0
-6 12 -17 18 19 20 -21 22 0
-6 12 -17 18 19 -20 21 22 0
-6 12 -17 18 19 -20 -21 -22 0
-6 12 -17 18 -19 20 21 22 0
-6 12 -17 18 -19 20 -21 -22 0
-6 12 -17 18 -19 -20 21 -22 0
-6 12 -17 18 -19 -20 -21 22 0
-6 12 -17 -18 19 20 21 22 0
-6 12 -17 -18 19 20 -21 -22 0
-6 12 -17 -18 19 -20 21 -22 0
-6 12 -17 -18 19 -20 -21 22 0
-6 12 -17 -18 -19 20 21 -22 0
-6 12 -17 -18 -19 20 -21 22 0
-6 12 -17 -18 -19 -20 21 22 0
-6 12 -17 -18 -19 -20 -21 -22 0
-6 -12 17 18 19 20 21 -22 0
-6 -12 17 18 19 20 -21 22 0
-6 -12 17 18 19 -20 21 22 0
-6 -12 17 18 19 -20 -21 -22 0
-6 -12 17 18 -19 20 21 22 0
-6 -12 17 18 -19 20 -21 -22 0
-6 -12 17 18 -19 -20 21 -22 0
-6 -12 17 18 -19 -20 -21 22 0
-6 -12 17 -18 19 20 21 22 0
-6 -12 17 -18 19 20 -21 -22 0
-6 -12 17 -18 19 -20 21 -22 0
-6 -12 17 -18 19 -20 -21 22 0
-6 -12 17 -18 -19 20 21 -22 0
-6 -12 17 -18 -19 20 -21 22 0
-6 -12 17 -18 -19 -20 21 22 0
-6 -12 17 -18 -19 -20 -21 -22 0
-6 -12 -17 18 19 20 21 22 0
-6 -12 -17 18 19 20 -21 -22 0
-6 -12 -17 18 19 -20 21 -22 0
-6 -12 -17 18 19 -20 -21 22 0
-6 -12 -17 18 -19 20 21 -22 0
-6 -12 -17 18 -19 20 -21 22 0
-6 -12 -17 18 -19 -20 21 22 0
-6 -12 -17 18 -19 -20 -21 -22 0
-6 -12 -17 -18 19 20 21 -22 0
-6 -12 -17 -18 19 20 -21 22 0
-6 -12 -17 -18 19 -20 21 22 0
-6 -12 -17 -18 19 -20 -21 -22 0
-6 -12 -17 -18 -19 20 21 22 0
-6 -12 -17 -18 -19 20 -21 -22 0
-6 -12 -17 -18 -19 -20 21 -22 0
-6 -12 -17 -18 -19 -20 -21 22 0
2 7 17 23 -24 0
2 7 17 -23 24 0
2 7 -17 23 24 0
2 7 -17 -23 -24 0
2 -7 17 23 24 0
2 -7 17 -23 -24 0
2 -7 -17 23 -24 0
2 -7 -17 -23 24 0
-2 7 17 23 24 0
-2 7 17 -23 -24 0
-2 7 -17 23 -24 0
-2 7 -17 -23 24 0
-2 -7 17 23 -24 0
-2 -7 17 -23 24 0
-2 -7 -17 23 24 0
-2 -7 -17 -23 -24 0
18 25 -26 0
18 -25 26 0
-18 25 26 0
-18 -25 -26 0
3 8 13 19 23 27 -28 0
3 8 13 19 23 -27 28 0
3 8 13 19 -23 27 28 0
3 8 13 19 -23 -27 -28 0
3 8 13 -19 23 27 28 0
3 8 13 -19 23 -27 -28 0
3 8 13 -19 -23 27 -28 0
3 8 13 -19 -23 -27 28 0
3 8 -13 19 23 27 28 0
3 8 -13 19 23 -27 -28 0
3 8 -13 19 -23 27 -28 0
3 8 -13 19 -23 -27 28 0
3 8 -13 -19 23 27 -28 0
3 8 -13 -19 23 -27 28 0
3 8 -13 -19 -23 27 28 0
3 8 -13 -19 -23 -27 -28 0
3 -8 13 19 23 27 28 0
3 -8 13 19 23 -27 -28 0
3 -8 13 19 -23 27 -28 0
3 -8 13 19 -23 -27 28 0
3 -8 13 -19 23 27 -28 0
3 -8 13 -19 23 -27 28 0
3 -8 13 -19 -23 27 28 0
3 -8 13 -19 -23 -27 -28 0
3 -8 -13 19 23 27 -28 0
3 -8 -13 19 23 -27 28 0
3 -8 -13 19 -23 27 28 0
3 -8 -13 19 -23 -27 -28 0
3 -8 -13 -19 23 27 28 0
3 -8 -13 -19 23 -27 -28 0
3 -8 -13 -19 -23 27 -28 0
3 -8 -13 -19 -23 -27 28 0
-3 8 13 19 23 27 28 0
-3 8 13 19 23 -27 -28 0
-3 8 13 19 -23 27 -28 0
-3 8 13 19 -23 -27 28 0
-3 8 13 -19 23 27 -28 0
-3 8 13 -19 23 -27 28 0
-3 8 13 -19 -23 27 28 0
-3 8 13 -19 -23 -27 -28 0
-3 8 -13 19 23 27 -28 0
-3 8 -13 19 23 -27 28 0
-3 8 -13 19 -23 27 28 0
-3 8 -13 19 -23 -27 -28 0
-3 8 -13 -19 23 27 28 0
-3 8 -13 -19 23 -27 -28 0
-3 8 -13 -19 -23 27 -28 0
-3 8 -13 -19 -23 -27 28 0
-3 -8 13 19 23 27 -28 0
-3 -8 13 19 23 -27 28 0
-3 -8 13 19 -23 27 28 0
-3 -8 13 19 -23 -27 -28 0
-3 -8 13 -19 23 27 28 0
-3 -8 13 -19 23 -27 -28 0
-3 -8 13 -19 -23 27 -28 0
-3 -8 13 -19 -23 -27 28 0
-3 -8 -13 19 23 27 28 0
-3 -8 -13 19 23 -27 -28 0
-3 -8 -13 19 -23 27 -28 0
-3 -8 -13 19 -23 -27 28 0
-3 -8 -13 -19 23 27 -28 0
-3 -8 -13 -19 23 -27 28 0
-3 -8 -13 -19 -23 27 28 0
-3 -8 -13 -19 -23 -27 -28 0
9 14 20 29 -30 0
9 14 20 -29 30 0
9 14 -20 29 30 0
9 14 -20 -29 -30 0
9 -14 20 29 30 0
9 -14 20 -29 -30 0
9 -14 -20 29 -30 0
9 -14 -20 -29 30 0
-9 14 20 29 30 0
-9 14 20 -29 -30 0
-9 14 -20 29 -30 0
-9 14 -20 -29 30 0
-9 -14 20 29 -30 0
-9 -14 20 -29 30 0
-9 -14 -20 29 30 0
-9 -14 -20 -29 -30 0
10 15 21 24 25 27 -29 0
10 15 21 24 25 -27 29 0
10 15 21 24 -25 27 29 0
10 15 21 24 -25 -27 -29 0
10 15 21 -24 25 27 29 0
10 15 21 -24 25 -27 -29 0
10 15 21 -24 -25 27 -29 0
10 15 21 -24 -25 -27 29 0
10 15 -21 24 25 27 29 0
10 15 -21 24 25 -27 -29 0
10 15 -21 24 -25 27 -29 0
10 15 -21 24 -25 -27 29 0
10 15 -21 -24 25 27 -29 0
10 15 -21 -24 25 -27 29 0
10 15 -21 -24 -25 27 29 0
10 15 -21 -24 -25 -27 -29 0
10 -15 21 24 25 27 29 0
10 -15 21 24 25 -27 -29 0
10 -15 21 24 -25 27 -29 0
10 -15 21 24 -25 -27 29 0
10 -15 21 -24 25 27 -29 0
10 -15 21 -24 25 -27 29 0
10 -15 21 -24 -25 27 29 0
10 -15 21 -24 -25 -27 -29 0
10 -15 -21 24 25 27 -29 0
10 -15 -21 24 25 -27 29 0
10 -15 -21 24 -25 27 29 0
10 -15 -21 24 -25 -27 -29 0
10 -15 -21 -24 25 27 29 0
10 -15 -21 -24 25 -27 -29 0
10 -15 -21 -24 -25 27 -29 0
10 -15 -21 -24 -25 -27 29 0
-10 15 21 24 25 27 29 0
-10 15 21 24 25 -27 -29 0
-10 15 21 24 -25 27 -29 0
-10 15 21 24 -25 -27 29 0
-10 15 21 -24 25 27 -29 0
-10 15 21 -24 25 -27 29 0
-10 15 21 -24 -25 27 29 0
-10 15 21 -24 -25 -27 -29 0
-10 15 -21 24 25 27 -29 0
-10 15 -21 24 25 -27 29 0
-10 15 -21 24 -25 27 29 0
-10 15 -21 24 -25 -27 -29 0
-10 15 -21 -24 25 27 29 0
-10 15 -21 -24 25 -27 -29 0
-10 15 -21 -24 -25 27 -29 0
-10 15 -21 -24 -25 -27 29 0
-10 -15 21 24 25 27 -29 0
-10 -15 21 24 25 -27 29 0
-10 -15 21 24 -25 27 29 0
-10 -15 21 24 -25 -27 -29 0
-10 -15 21 -24 25 27 29 0
-10 -15 21 -24 25 -27 -29 0
-10 -15 21 -24 -25 27 -29 0
-10 -15 21 -24 -25 -27 29 0
-10 -15 -21 24 25 27 29 0
-10 -15 -21 24 25 -27 -29 0
-10 -15 -21 24 -25 27 -29 0
-10 -15 -21 24 -25 -27 29 0
-10 -15 -21 -24 25 27 -29 0
-10 -15 -21 -24 25 -27 29 0
-10 -15 -21 -24 -25 27 29 0
-10 -15 -21 -24 -25 -27 -29 0
4 11 16 22 26 28 -30 0
4 11 16 22 26 -28 30 0
4 11 16 22 -26 28 30 0
4 11 16 22 -26 -28 -30 0
4 11 16 -22 26 28 30 0
4 11 16 -22 26 -28 -30 0
4 11 16 -22 -26 28 -30 0
4 11 16 -22 -26 -28 30 0
4 11 -16 22 26 28 30 0
4 11 -16 22 26 -28 -30 0
4 11 -16 22 -26 28 -30 0
4 11 -16 22 -26 -28 30 0
4 11 -16 -22 26 28 -30 0
4 11 -16 -22 26 -28 30 0
4 11 -16 -22 -26 28 30 0
4 11 -16 -22 -26 -28 -30 0
4 -11 16 22 26 28 30 0
4 -11 16 22 26 -28 -30 0
4 -11 16 22 -26 28 -30 0
4 -11 16 22 -26 -28 30 0
4 -11 16 -22 26 28 -30 0
4 -11 16 -22 26 -28 30 0
4 -11 16 -22 -26 28 30 0
4 -11 16 -22 -26 -28 -30 0
4 -11 -16 22 26 28 -30 0
4 -11 -16 22 26 -28 30 0
4 -11 -16 22 -26 28 30 0
4 -11 -16 22 -26 -28 -30 0
4 -11 -16 -22 26 28 30 0
4 -11 -16 -22 26 -28 -30 0
4 -11 -16 -22 -26 28 -30 0
4 -11 -16 -22 -26 -28 30 0
-4 11 16 22 26 28 30 0
-4 11 16 22 26 -28 -30 0
-4 11 16 22 -26 28 -30 0
-4 11 16 22 -26 -28 30 0
-4 11 16 -22 26 28 -30 0
-4 11 16 -22 26 -28 30 0
-4 11 16 -22 -26 28 30 0
-4 11 16 -22 -26 -28 -30 0
-4 11 -16 22 26 28 -30 0
-4 11 -16 22 26 -28 30 0
-4 11 -16 22 -26 28 30 0
-4 11 -16 22 -26 -28 -30 0
-4 11 -16 -22 26 28 30 0
-4 11 -16 -22 26 -28 -30 0
-4 11 -16 -22 -26 28 -30 0
-4 11 -16 -22 -26 -28 30 0
-4 -11 16 22 26 28 -30 0
-4 -11 16 22 26 -28 30 0
-4 -11 16 22 -26 28 30 0
-4 -11 16 22 -26 -28 -30 0
-4 -11 16 -22 26 28 30 0
-4 -11 16 -22 26 -28 -30 0
-4 -11 16 -22 -26 28 -30 0
-4 -11 16 -22 -26 -28 30 0
-4 -11 -16 22 26 28 30 0
-4 -11 -16 22 26 -28 -30 0
-4 -11 -16 22 -26 28 -30 0
-4 -11 -16 22 -26 -28 30 0
-4 -11 -16 -22 26 28 -30 0
-4 -11 -16 -22 26 -28 30 0
-4 -11 -16 -22 -26 28 30 0
-4 -11 -16 -22 -26 -28 -30 0